results_rootrelaxation/bin012_070_009.srr.sol
solution status: optimal solution found
objective value:                     8.36111111111111
_var735_                            0.444444444444444 	(obj:0)
_var736_                           0.0277777777777776 	(obj:1)
_var740_                            0.444444444444448 	(obj:1)
_var750_                            0.194444444444447 	(obj:1)
_var755_                            0.388888888888889 	(obj:0)
_var758_                             0.27777777777778 	(obj:2)
_var777_                            0.277777777777778 	(obj:0)
_var792_                            0.416666666666665 	(obj:0)
_var796_                            0.444444444444448 	(obj:0)
_var804_                           0.0277777777777778 	(obj:1)
_var810_                            0.333333333333333 	(obj:0)
_var811_                           0.0555555555555552 	(obj:1)
_var814_                           0.0277777777777783 	(obj:0)
_var816_                            0.194444444444446 	(obj:1)
_var817_                            0.277777777777774 	(obj:0)
_var826_                            0.055555555555557 	(obj:1)
_var833_                            0.527777777777775 	(obj:1)
_var835_                            0.249999999999998 	(obj:2)
_var839_                           0.0277777777777842 	(obj:0)
_var840_                            0.249999999999993 	(obj:0)
_var841_                           0.0555555555555586 	(obj:1)
_var844_                           0.0277777777777801 	(obj:1)
_var847_                            0.388888888888889 	(obj:0)
_var848_                            0.277777777777779 	(obj:1)
_var853_                             0.27777777777778 	(obj:2)
_var855_                           0.0833333333333342 	(obj:1)
_var856_                            0.277777777777778 	(obj:0)
_var864_                            0.611111111111111 	(obj:1)
_var866_                           0.0277777777777817 	(obj:1)
_var867_                           0.0555555555555534 	(obj:0)
_var871_                            0.249999999999995 	(obj:1)
_var873_                           0.0277777777777783 	(obj:1)
_var877_                            0.277777777777776 	(obj:1)
_var879_                           0.0833333333333327 	(obj:1)
_var880_                            0.166666666666663 	(obj:0)
_var881_                             0.19444444444444 	(obj:1)
_var884_                             0.27777777777778 	(obj:1)
_var885_                            0.194444444444447 	(obj:1)
_var888_                           0.0833333333333393 	(obj:1)
_var893_                           0.0277777777777777 	(obj:2)
_var898_                            0.361111111111112 	(obj:1)
_var899_                            0.138888888888886 	(obj:0)
_var900_                            0.111111111111114 	(obj:2)
_var901_                            0.111111111111111 	(obj:2)
_var903_                           0.0277777777777802 	(obj:2)
_var907_                            0.138888888888886 	(obj:1)
_var909_                            0.277777777777783 	(obj:1)
_var912_                             0.16666666666667 	(obj:1)
_var914_                            0.333333333333332 	(obj:1)
_var916_                           0.0833333333333312 	(obj:2)
_var918_                            0.111111111111108 	(obj:2)
_var919_                            0.111111111111114 	(obj:1)
_var920_                            0.222222222222218 	(obj:1)
_var923_                            0.138888888888884 	(obj:1)
_var925_                           0.0555555555555546 	(obj:1)
