results_rootrelaxation/bin012_070_009.srr.log
SCIP version 8.0.3.5 [precision: 8 byte] [memory: block] [mode: optimized] [LP solver: Soplex 6.0.1.3] [GitHash: 438792519e]
Copyright (c) 2002-2023 Zuse Institute Berlin (ZIB)

External libraries: 
  Readline 8.1         GNU library for command line editing (gnu.org/s/readline)
  Soplex 6.0.1.3       Linear Programming Solver developed at Zuse Institute Berlin (soplex.zib.de) [GitHash: 713be0fe]
  CppAD 20180000.0     Algorithmic Differentiation of C++ algorithms developed by B. Bell (github.com/coin-or/CppAD)
  ZLIB 1.2.11          General purpose compression library by J. Gailly and M. Adler (zlib.net)
  bliss 0.77           Computing Graph Automorphism Groups by T. Junttila and P. Kaski (www.tcs.hut.fi/Software/bliss/)

user parameter file <scip.set> not found - using default parameters

srr/relaxation = TRUE

read problem <instances/bin012_070_009.srr>
============

Original problem: 
original problem has 0 variables (0 bin, 0 int, 0 impl, 0 cont) and 77 constraints

presolving:
presolving (1 rounds: 1 fast, 1 medium, 1 exhaustive):
 0 deleted vars, 0 deleted constraints, 0 added constraints, 0 tightened bounds, 0 added holes, 0 changed sides, 0 changed coefficients
 0 implications, 0 cliques
presolved problem has 0 variables (0 bin, 0 int, 0 impl, 0 cont) and 77 constraints
     77 constraints of type <linear>
Presolving Time: 0.00

 time | node  | left  |LP iter|LP it/n|mem/heur|mdpt |vars |cons |rows |cuts |sepa|confs|strbr|  dualbound   | primalbound  |  gap   | compl. 
  0.0s|     1 |     0 |     1 |     - |   710k |   0 |   1 |  77 |  77 |   0 |  0 |   0 |   0 |      --      |      --      |    Inf | unknown
r 0.0s|     1 |     0 |   734 |     - |simplero|   0 | 697 |  77 |  77 |   0 |  0 |   0 |   0 |      --      | 2.738606e+01 |    Inf | unknown
r 0.0s|     1 |     0 |   780 |     - |simplero|   0 | 708 |  77 |  77 |   0 |  0 |   0 |   0 |      --      | 2.526527e+01 |    Inf | unknown
r 0.0s|     1 |     0 |   856 |     - |simplero|   0 | 719 |  77 |  77 |   0 |  0 |   0 |   0 |      --      | 2.249448e+01 |    Inf | unknown
r 0.1s|     1 |     0 |   896 |     - |simplero|   0 | 730 |  77 |  77 |   0 |  0 |   0 |   0 |      --      | 2.104856e+01 |    Inf | unknown
r 0.1s|     1 |     0 |   962 |     - |simplero|   0 | 741 |  77 |  77 |   0 |  0 |   0 |   0 |      --      | 1.888685e+01 |    Inf | unknown
r 0.1s|     1 |     0 |  1014 |     - |simplero|   0 | 752 |  77 |  77 |   0 |  0 |   0 |   0 |      --      | 1.750006e+01 |    Inf | unknown
r 0.1s|     1 |     0 |  1098 |     - |simplero|   0 | 763 |  77 |  77 |   0 |  0 |   0 |   0 |      --      | 1.537118e+01 |    Inf | unknown
r 0.1s|     1 |     0 |  1137 |     - |simplero|   0 | 774 |  77 |  77 |   0 |  0 |   0 |   0 |      --      | 1.407006e+01 |    Inf | unknown
r 0.1s|     1 |     0 |  1142 |     - |simplero|   0 | 774 |  77 |  77 |   0 |  0 |   0 |   0 |      --      | 1.397631e+01 |    Inf | unknown
r 0.1s|     1 |     0 |  1143 |     - |simplero|   0 | 774 |  77 |  77 |   0 |  0 |   0 |   0 |      --      | 1.397526e+01 |    Inf | unknown
r 0.1s|     1 |     0 |  1177 |     - |simplero|   0 | 785 |  77 |  77 |   0 |  0 |   0 |   0 |      --      | 1.313686e+01 |    Inf | unknown
r 0.1s|     1 |     0 |  1182 |     - |simplero|   0 | 785 |  77 |  77 |   0 |  0 |   0 |   0 |      --      | 1.312777e+01 |    Inf | unknown
r 0.1s|     1 |     0 |  1184 |     - |simplero|   0 | 785 |  77 |  77 |   0 |  0 |   0 |   0 |      --      | 1.312748e+01 |    Inf | unknown
r 0.1s|     1 |     0 |  1196 |     - |simplero|   0 | 796 |  77 |  77 |   0 |  0 |   0 |   0 |      --      | 1.267696e+01 |    Inf | unknown
 time | node  | left  |LP iter|LP it/n|mem/heur|mdpt |vars |cons |rows |cuts |sepa|confs|strbr|  dualbound   | primalbound  |  gap   | compl. 
r 0.1s|     1 |     0 |  1228 |     - |simplero|   0 | 796 |  77 |  77 |   0 |  0 |   0 |   0 |      --      | 1.222208e+01 |    Inf | unknown
r 0.1s|     1 |     0 |  1239 |     - |simplero|   0 | 796 |  77 |  77 |   0 |  0 |   0 |   0 |      --      | 1.215755e+01 |    Inf | unknown
r 0.1s|     1 |     0 |  1242 |     - |simplero|   0 | 796 |  77 |  77 |   0 |  0 |   0 |   0 |      --      | 1.215606e+01 |    Inf | unknown
r 0.1s|     1 |     0 |  1282 |     - |simplero|   0 | 807 |  77 |  77 |   0 |  0 |   0 |   0 |      --      | 1.145097e+01 |    Inf | unknown
r 0.1s|     1 |     0 |  1302 |     - |simplero|   0 | 807 |  77 |  77 |   0 |  0 |   0 |   0 |      --      | 1.136175e+01 |    Inf | unknown
r 0.1s|     1 |     0 |  1310 |     - |simplero|   0 | 807 |  77 |  77 |   0 |  0 |   0 |   0 |      --      | 1.134288e+01 |    Inf | unknown
r 0.1s|     1 |     0 |  1346 |     - |simplero|   0 | 818 |  77 |  77 |   0 |  0 |   0 |   0 |      --      | 1.094188e+01 |    Inf | unknown
r 0.1s|     1 |     0 |  1354 |     - |simplero|   0 | 818 |  77 |  77 |   0 |  0 |   0 |   0 |      --      | 1.091993e+01 |    Inf | unknown
r 0.1s|     1 |     0 |  1382 |     - |simplero|   0 | 829 |  77 |  77 |   0 |  0 |   0 |   0 |      --      | 1.050961e+01 |    Inf | unknown
r 0.1s|     1 |     0 |  1383 |     - |simplero|   0 | 829 |  77 |  77 |   0 |  0 |   0 |   0 |      --      | 1.050938e+01 |    Inf | unknown
r 0.1s|     1 |     0 |  1428 |     - |simplero|   0 | 840 |  77 |  77 |   0 |  0 |   0 |   0 |      --      | 9.981545e+00 |    Inf | unknown
r 0.1s|     1 |     0 |  1453 |     - |simplero|   0 | 851 |  77 |  77 |   0 |  0 |   0 |   0 |      --      | 9.527805e+00 |    Inf | unknown
r 0.1s|     1 |     0 |  1460 |     - |simplero|   0 | 851 |  77 |  77 |   0 |  0 |   0 |   0 |      --      | 9.513419e+00 |    Inf | unknown
r 0.1s|     1 |     0 |  1488 |     - |simplero|   0 | 862 |  77 |  77 |   0 |  0 |   0 |   0 |      --      | 9.295580e+00 |    Inf | unknown
r 0.1s|     1 |     0 |  1496 |     - |simplero|   0 | 862 |  77 |  77 |   0 |  0 |   0 |   0 |      --      | 9.246048e+00 |    Inf | unknown
 time | node  | left  |LP iter|LP it/n|mem/heur|mdpt |vars |cons |rows |cuts |sepa|confs|strbr|  dualbound   | primalbound  |  gap   | compl. 
r 0.1s|     1 |     0 |  1499 |     - |simplero|   0 | 862 |  77 |  77 |   0 |  0 |   0 |   0 |      --      | 9.242122e+00 |    Inf | unknown
r 0.1s|     1 |     0 |  1529 |     - |simplero|   0 | 873 |  77 |  77 |   0 |  0 |   0 |   0 |      --      | 8.915200e+00 |    Inf | unknown
  0.1s|     1 |     0 |  1541 |     - |  4226k |   0 | 873 |  77 |  77 |   0 |  0 |   0 |   0 |      --      | 8.915200e+00 |    Inf | unknown
r 0.1s|     1 |     0 |  1541 |     - |simplero|   0 | 873 |  77 |  77 |   0 |  0 |   0 |   0 |      --      | 8.886400e+00 |    Inf | unknown
r 0.1s|     1 |     0 |  1555 |     - |simplero|   0 | 873 |  77 |  77 |   0 |  0 |   0 |   0 |      --      | 8.874482e+00 |    Inf | unknown
r 0.1s|     1 |     0 |  1584 |     - |simplero|   0 | 884 |  77 |  77 |   0 |  0 |   0 |   0 |      --      | 8.690464e+00 |    Inf | unknown
r 0.1s|     1 |     0 |  1597 |     - |simplero|   0 | 893 |  77 |  77 |   0 |  0 |   0 |   0 |      --      | 8.574144e+00 |    Inf | unknown
r 0.1s|     1 |     0 |  1612 |     - |simplero|   0 | 900 |  77 |  77 |   0 |  0 |   0 |   0 |      --      | 8.528949e+00 |    Inf | unknown
r 0.1s|     1 |     0 |  1625 |     - |simplero|   0 | 900 |  77 |  77 |   0 |  0 |   0 |   0 |      --      | 8.503056e+00 |    Inf | unknown
r 0.1s|     1 |     0 |  1648 |     - |simplero|   0 | 906 |  77 |  77 |   0 |  0 |   0 |   0 |      --      | 8.406121e+00 |    Inf | unknown
r 0.1s|     1 |     0 |  1664 |     - |simplero|   0 | 912 |  77 |  77 |   0 |  0 |   0 |   0 |      --      | 8.382353e+00 |    Inf | unknown
r 0.1s|     1 |     0 |  1675 |     - |simplero|   0 | 916 |  77 |  77 |   0 |  0 |   0 |   0 |      --      | 8.375000e+00 |    Inf | unknown
r 0.1s|     1 |     0 |  1684 |     - |simplero|   0 | 920 |  77 |  77 |   0 |  0 |   0 |   0 |      --      | 8.371681e+00 |    Inf | unknown
r 0.1s|     1 |     0 |  1689 |     - |simplero|   0 | 923 |  77 |  77 |   0 |  0 |   0 |   0 |      --      | 8.367647e+00 |    Inf | unknown
r 0.1s|     1 |     0 |  1697 |     - |simplero|   0 | 924 |  77 |  77 |   0 |  0 |   0 |   0 |      --      | 8.363636e+00 |    Inf | unknown
 time | node  | left  |LP iter|LP it/n|mem/heur|mdpt |vars |cons |rows |cuts |sepa|confs|strbr|  dualbound   | primalbound  |  gap   | compl. 
r 0.1s|     1 |     0 |  1705 |     - |simplero|   0 | 926 |  77 |  77 |   0 |  0 |   0 |   0 |      --      | 8.361111e+00 |    Inf | unknown
  0.1s|     1 |     0 |  1705 |     - |  4362k |   0 | 926 |  77 |  77 |   0 |  0 |   0 |   0 | 8.361111e+00 | 8.361111e+00 |   0.00%| unknown
  0.1s|     1 |     0 |  1705 |     - |  4362k |   0 | 926 |  77 |  77 |   0 |  0 |   0 |   0 | 8.361111e+00 | 8.361111e+00 |   0.00%| unknown

SCIP Status        : problem is solved [optimal solution found]
Solving Time (sec) : 0.10
Solving Nodes      : 1
Primal Bound       : +8.36111111111111e+00 (44 solutions)
Dual Bound         : +8.36111111111111e+00
Gap                : 0.00 %

written transformed problem to file <results_rootrelaxation/bin012_070_009.srr.lp>
written transformed problem to file <results_rootrelaxation/bin012_070_009.srr.cip>


SCIP version 8.0.3.5 [precision: 8 byte] [memory: block] [mode: optimized] [LP solver: Soplex 6.0.1.3] [GitHash: 438792519e]
Copyright (c) 2002-2023 Zuse Institute Berlin (ZIB)

External libraries: 
  Readline 8.1         GNU library for command line editing (gnu.org/s/readline)
  Soplex 6.0.1.3       Linear Programming Solver developed at Zuse Institute Berlin (soplex.zib.de) [GitHash: 713be0fe]
  CppAD 20180000.0     Algorithmic Differentiation of C++ algorithms developed by B. Bell (github.com/coin-or/CppAD)
  ZLIB 1.2.11          General purpose compression library by J. Gailly and M. Adler (zlib.net)
  bliss 0.77           Computing Graph Automorphism Groups by T. Junttila and P. Kaski (www.tcs.hut.fi/Software/bliss/)

user parameter file <scip.set> not found - using default parameters

srr/relaxation = TRUE

read problem <instances/bin012_070_009.srr>
============

Original problem: 
original problem has 0 variables (0 bin, 0 int, 0 impl, 0 cont) and 77 constraints

presolving:
presolving (1 rounds: 1 fast, 1 medium, 1 exhaustive):
 0 deleted vars, 0 deleted constraints, 0 added constraints, 0 tightened bounds, 0 added holes, 0 changed sides, 0 changed coefficients
 0 implications, 0 cliques
presolved problem has 0 variables (0 bin, 0 int, 0 impl, 0 cont) and 77 constraints
     77 constraints of type <linear>
Presolving Time: 0.00

 time | node  | left  |LP iter|LP it/n|mem/heur|mdpt |vars |cons |rows |cuts |sepa|confs|strbr|  dualbound   | primalbound  |  gap   | compl. 
  0.0s|     1 |     0 |     1 |     - |   710k |   0 |   1 |  77 |  77 |   0 |  0 |   0 |   0 |      --      |      --      |    Inf | unknown
r 0.0s|     1 |     0 |   734 |     - |simplero|   0 | 697 |  77 |  77 |   0 |  0 |   0 |   0 |      --      | 2.738606e+01 |    Inf | unknown
r 0.0s|     1 |     0 |   780 |     - |simplero|   0 | 708 |  77 |  77 |   0 |  0 |   0 |   0 |      --      | 2.526527e+01 |    Inf | unknown
r 0.0s|     1 |     0 |   856 |     - |simplero|   0 | 719 |  77 |  77 |   0 |  0 |   0 |   0 |      --      | 2.249448e+01 |    Inf | unknown
r 0.0s|     1 |     0 |   896 |     - |simplero|   0 | 730 |  77 |  77 |   0 |  0 |   0 |   0 |      --      | 2.104856e+01 |    Inf | unknown
r 0.0s|     1 |     0 |   962 |     - |simplero|   0 | 741 |  77 |  77 |   0 |  0 |   0 |   0 |      --      | 1.888685e+01 |    Inf | unknown
r 0.1s|     1 |     0 |  1014 |     - |simplero|   0 | 752 |  77 |  77 |   0 |  0 |   0 |   0 |      --      | 1.750006e+01 |    Inf | unknown
r 0.1s|     1 |     0 |  1098 |     - |simplero|   0 | 763 |  77 |  77 |   0 |  0 |   0 |   0 |      --      | 1.537118e+01 |    Inf | unknown
r 0.1s|     1 |     0 |  1137 |     - |simplero|   0 | 774 |  77 |  77 |   0 |  0 |   0 |   0 |      --      | 1.407006e+01 |    Inf | unknown
r 0.1s|     1 |     0 |  1142 |     - |simplero|   0 | 774 |  77 |  77 |   0 |  0 |   0 |   0 |      --      | 1.397631e+01 |    Inf | unknown
r 0.1s|     1 |     0 |  1143 |     - |simplero|   0 | 774 |  77 |  77 |   0 |  0 |   0 |   0 |      --      | 1.397526e+01 |    Inf | unknown
r 0.1s|     1 |     0 |  1177 |     - |simplero|   0 | 785 |  77 |  77 |   0 |  0 |   0 |   0 |      --      | 1.313686e+01 |    Inf | unknown
r 0.1s|     1 |     0 |  1182 |     - |simplero|   0 | 785 |  77 |  77 |   0 |  0 |   0 |   0 |      --      | 1.312777e+01 |    Inf | unknown
r 0.1s|     1 |     0 |  1184 |     - |simplero|   0 | 785 |  77 |  77 |   0 |  0 |   0 |   0 |      --      | 1.312748e+01 |    Inf | unknown
r 0.1s|     1 |     0 |  1196 |     - |simplero|   0 | 796 |  77 |  77 |   0 |  0 |   0 |   0 |      --      | 1.267696e+01 |    Inf | unknown
 time | node  | left  |LP iter|LP it/n|mem/heur|mdpt |vars |cons |rows |cuts |sepa|confs|strbr|  dualbound   | primalbound  |  gap   | compl. 
r 0.1s|     1 |     0 |  1228 |     - |simplero|   0 | 796 |  77 |  77 |   0 |  0 |   0 |   0 |      --      | 1.222208e+01 |    Inf | unknown
r 0.1s|     1 |     0 |  1239 |     - |simplero|   0 | 796 |  77 |  77 |   0 |  0 |   0 |   0 |      --      | 1.215755e+01 |    Inf | unknown
r 0.1s|     1 |     0 |  1242 |     - |simplero|   0 | 796 |  77 |  77 |   0 |  0 |   0 |   0 |      --      | 1.215606e+01 |    Inf | unknown
r 0.1s|     1 |     0 |  1282 |     - |simplero|   0 | 807 |  77 |  77 |   0 |  0 |   0 |   0 |      --      | 1.145097e+01 |    Inf | unknown
r 0.1s|     1 |     0 |  1302 |     - |simplero|   0 | 807 |  77 |  77 |   0 |  0 |   0 |   0 |      --      | 1.136175e+01 |    Inf | unknown
r 0.1s|     1 |     0 |  1310 |     - |simplero|   0 | 807 |  77 |  77 |   0 |  0 |   0 |   0 |      --      | 1.134288e+01 |    Inf | unknown
r 0.1s|     1 |     0 |  1346 |     - |simplero|   0 | 818 |  77 |  77 |   0 |  0 |   0 |   0 |      --      | 1.094188e+01 |    Inf | unknown
r 0.1s|     1 |     0 |  1354 |     - |simplero|   0 | 818 |  77 |  77 |   0 |  0 |   0 |   0 |      --      | 1.091993e+01 |    Inf | unknown
r 0.1s|     1 |     0 |  1382 |     - |simplero|   0 | 829 |  77 |  77 |   0 |  0 |   0 |   0 |      --      | 1.050961e+01 |    Inf | unknown
r 0.1s|     1 |     0 |  1383 |     - |simplero|   0 | 829 |  77 |  77 |   0 |  0 |   0 |   0 |      --      | 1.050938e+01 |    Inf | unknown
r 0.1s|     1 |     0 |  1428 |     - |simplero|   0 | 840 |  77 |  77 |   0 |  0 |   0 |   0 |      --      | 9.981545e+00 |    Inf | unknown
r 0.1s|     1 |     0 |  1453 |     - |simplero|   0 | 851 |  77 |  77 |   0 |  0 |   0 |   0 |      --      | 9.527805e+00 |    Inf | unknown
r 0.1s|     1 |     0 |  1460 |     - |simplero|   0 | 851 |  77 |  77 |   0 |  0 |   0 |   0 |      --      | 9.513419e+00 |    Inf | unknown
r 0.1s|     1 |     0 |  1488 |     - |simplero|   0 | 862 |  77 |  77 |   0 |  0 |   0 |   0 |      --      | 9.295580e+00 |    Inf | unknown
r 0.1s|     1 |     0 |  1496 |     - |simplero|   0 | 862 |  77 |  77 |   0 |  0 |   0 |   0 |      --      | 9.246048e+00 |    Inf | unknown
 time | node  | left  |LP iter|LP it/n|mem/heur|mdpt |vars |cons |rows |cuts |sepa|confs|strbr|  dualbound   | primalbound  |  gap   | compl. 
r 0.1s|     1 |     0 |  1499 |     - |simplero|   0 | 862 |  77 |  77 |   0 |  0 |   0 |   0 |      --      | 9.242122e+00 |    Inf | unknown
r 0.1s|     1 |     0 |  1529 |     - |simplero|   0 | 873 |  77 |  77 |   0 |  0 |   0 |   0 |      --      | 8.915200e+00 |    Inf | unknown
  0.1s|     1 |     0 |  1541 |     - |  4226k |   0 | 873 |  77 |  77 |   0 |  0 |   0 |   0 |      --      | 8.915200e+00 |    Inf | unknown
r 0.1s|     1 |     0 |  1541 |     - |simplero|   0 | 873 |  77 |  77 |   0 |  0 |   0 |   0 |      --      | 8.886400e+00 |    Inf | unknown
r 0.1s|     1 |     0 |  1555 |     - |simplero|   0 | 873 |  77 |  77 |   0 |  0 |   0 |   0 |      --      | 8.874482e+00 |    Inf | unknown
r 0.1s|     1 |     0 |  1584 |     - |simplero|   0 | 884 |  77 |  77 |   0 |  0 |   0 |   0 |      --      | 8.690464e+00 |    Inf | unknown
r 0.1s|     1 |     0 |  1597 |     - |simplero|   0 | 893 |  77 |  77 |   0 |  0 |   0 |   0 |      --      | 8.574144e+00 |    Inf | unknown
r 0.1s|     1 |     0 |  1612 |     - |simplero|   0 | 900 |  77 |  77 |   0 |  0 |   0 |   0 |      --      | 8.528949e+00 |    Inf | unknown
r 0.1s|     1 |     0 |  1625 |     - |simplero|   0 | 900 |  77 |  77 |   0 |  0 |   0 |   0 |      --      | 8.503056e+00 |    Inf | unknown
r 0.1s|     1 |     0 |  1648 |     - |simplero|   0 | 906 |  77 |  77 |   0 |  0 |   0 |   0 |      --      | 8.406121e+00 |    Inf | unknown
r 0.1s|     1 |     0 |  1664 |     - |simplero|   0 | 912 |  77 |  77 |   0 |  0 |   0 |   0 |      --      | 8.382353e+00 |    Inf | unknown
r 0.1s|     1 |     0 |  1675 |     - |simplero|   0 | 916 |  77 |  77 |   0 |  0 |   0 |   0 |      --      | 8.375000e+00 |    Inf | unknown
r 0.1s|     1 |     0 |  1684 |     - |simplero|   0 | 920 |  77 |  77 |   0 |  0 |   0 |   0 |      --      | 8.371681e+00 |    Inf | unknown
r 0.1s|     1 |     0 |  1689 |     - |simplero|   0 | 923 |  77 |  77 |   0 |  0 |   0 |   0 |      --      | 8.367647e+00 |    Inf | unknown
r 0.1s|     1 |     0 |  1697 |     - |simplero|   0 | 924 |  77 |  77 |   0 |  0 |   0 |   0 |      --      | 8.363636e+00 |    Inf | unknown
 time | node  | left  |LP iter|LP it/n|mem/heur|mdpt |vars |cons |rows |cuts |sepa|confs|strbr|  dualbound   | primalbound  |  gap   | compl. 
r 0.1s|     1 |     0 |  1705 |     - |simplero|   0 | 926 |  77 |  77 |   0 |  0 |   0 |   0 |      --      | 8.361111e+00 |    Inf | unknown
  0.1s|     1 |     0 |  1705 |     - |  4362k |   0 | 926 |  77 |  77 |   0 |  0 |   0 |   0 | 8.361111e+00 | 8.361111e+00 |   0.00%| unknown
  0.1s|     1 |     0 |  1705 |     - |  4362k |   0 | 926 |  77 |  77 |   0 |  0 |   0 |   0 | 8.361111e+00 | 8.361111e+00 |   0.00%| unknown

SCIP Status        : problem is solved [optimal solution found]
Solving Time (sec) : 0.09
Solving Nodes      : 1
Primal Bound       : +8.36111111111111e+00 (44 solutions)
Dual Bound         : +8.36111111111111e+00
Gap                : 0.00 %

written transformed problem to file <results_rootrelaxation/bin012_070_009.srr.lp>
written transformed problem to file <results_rootrelaxation/bin012_070_009.srr.cip>

written solution information to file <results_rootrelaxation/bin012_070_009.srr.sol>



